70
150
105	3
104	5
101	4
100	2
98	3
97	2
96	2
95	1
94	1
92	6
91	3
90	2
89	2
88	2
87	7
86	1
85	1
84	3
83	4
82	3
81	6
80	3
79	5
78	2
77	2
76	3
75	2
74	5
73	3
72	1
71	4
70	3
68	4
67	2
66	3
65	2
64	4
63	2
62	3
61	3
60	2
59	2
58	3
57	3
56	1
55	4
54	4
53	2
52	4
51	1
50	3
49	5
48	1
47	3
46	4
45	1
44	1
43	3
42	2
41	2
40	3
39	4
38	1
36	2
35	3
34	5
33	4
32	1
31	4
30	3
